************************************************************************
file with basedata            : mm55_.bas
initial value random generator: 1089052379
************************************************************************
projects                      :  1
jobs (incl. supersource/sink ):  12
horizon                       :  77
RESOURCES
  - renewable                 :  2   R
  - nonrenewable              :  2   N
  - doubly constrained        :  0   D
************************************************************************
PROJECT INFORMATION:
pronr.  #jobs rel.date duedate tardcost  MPM-Time
    1     10      0       13        7       13
************************************************************************
PRECEDENCE RELATIONS:
jobnr.    #modes  #successors   successors
   0        1          3           1   2   3
   1        3          1           4
   2        3          2           6   7
   3        3          3           4   5  10
   4        3          1           9
   5        3          1           8
   6        3          2           8  10
   7        3          2           8   9
   8        3          1          11
   9        3          1          11
  10        3          1          11
  11        1          0        
************************************************************************
REQUESTS/DURATIONS:
jobnr. mode duration  R 1  R 2  R 3  R 4  E(W 1)  E(W 2)  E(W 3)
------------------------------------------------------------------------
  0      1     0       0    0    0    0     0       0       0
  1      1     9       5    9    4    6    126      36      54
  2      1     1       7    6    9   10    13       9      10
  3      1     1       4    4    9   10     8       9      10
  4      1     3       8    6    2    3    42       6       9
  5      1     1       4    6    7    8    10       7       8
  6      1     1       9    4    2    9    13       2       9
  7      1     2       8    4    6    5    24      12      10
  8      1     3       4    6    3    8    30       9      24
  9      1     1       8    8    7    6    16       7       6
 10      1     4       8    2    6    5    40      24      20
 11      1     0       0    0    0    0     0       0       0
************************************************************************
RESOURCEAVAILABILITIES:
  R 1  R 2  R 3
   38   47   66
************************************************************************
RESOURCE LIMITS:
jobnr.  l(R 1)  u(R 1)  l(R 2)  u(R 2)  l(R 3)  u(R 3)
------------------------------------------------------------------------
  0        0       0       0       0       0       0
  1        8      14       2       4       3       6
  2        7      13       5       9       5      10
  3        4       8       5       9       5      10
  4        7      14       1       2       2       3
  5        5      10       4       7       4       8
  6        7      13       1       2       5       9
  7        6      12       3       6       3       5
  8        5      10       2       3       4       8
  9        8      16       4       7       3       6
 10        5      10       3       6       3       5
 11        0       0       0       0       0       0
************************************************************************
SCENARIOS:
------------------------------------------------------------------------
RESOURCE k = 1
s = 1: (0, 117, 10, 8, 74, 8, 10, 27, 24, 18, 64, 0)
s = 2: (0, 89, 11, 11, 52, 15, 10, 21, 32, 10, 50, 0)
s = 3: (0, 119, 18, 8, 52, 9, 11, 16, 29, 17, 36, 0)
s = 4: (0, 108, 12, 10, 31, 7, 11, 17, 33, 9, 48, 0)
s = 5: (0, 117, 16, 6, 42, 8, 10, 22, 18, 12, 42, 0)
s = 6: (0, 98, 18, 5, 51, 9, 9, 18, 34, 15, 48, 0)
s = 7: (0, 108, 8, 7, 34, 10, 16, 24, 26, 11, 29, 0)
s = 8: (0, 162, 14, 9, 26, 9, 22, 33, 23, 17, 40, 0)
s = 9: (0, 134, 8, 8, 55, 15, 16, 19, 37, 13, 46, 0)
s = 10: (0, 118, 18, 9, 64, 7, 15, 38, 43, 11, 47, 0)
s = 11: (0, 177, 9, 9, 34, 10, 13, 36, 27, 15, 32, 0)
s = 12: (0, 149, 18, 10, 54, 10, 11, 15, 25, 19, 35, 0)
s = 13: (0, 99, 15, 6, 44, 13, 12, 26, 45, 20, 38, 0)
s = 14: (0, 132, 10, 12, 32, 14, 16, 14, 34, 22, 54, 0)
s = 15: (0, 127, 18, 8, 74, 9, 11, 23, 34, 20, 35, 0)
s = 16: (0, 152, 11, 7, 39, 6, 12, 17, 35, 17, 34, 0)
s = 17: (0, 115, 8, 6, 38, 15, 11, 39, 40, 29, 25, 0)
s = 18: (0, 133, 10, 10, 40, 8, 14, 23, 22, 21, 54, 0)
s = 19: (0, 84, 24, 6, 47, 7, 12, 33, 40, 18, 28, 0)
s = 20: (0, 107, 20, 10, 49, 8, 12, 26, 29, 15, 38, 0)
s = 21: (0, 129, 14, 9, 44, 14, 12, 30, 31, 15, 40, 0)
s = 22: (0, 179, 13, 8, 25, 10, 17, 23, 29, 19, 27, 0)
s = 23: (0, 147, 12, 9, 45, 6, 15, 37, 26, 17, 24, 0)
s = 24: (0, 135, 11, 10, 55, 14, 14, 24, 31, 13, 30, 0)
s = 25: (0, 213, 16, 8, 35, 11, 12, 15, 20, 25, 53, 0)
s = 26: (0, 76, 13, 15, 33, 12, 13, 20, 25, 12, 65, 0)
s = 27: (0, 122, 16, 6, 46, 13, 8, 18, 29, 30, 45, 0)
s = 28: (0, 172, 13, 6, 26, 8, 15, 17, 47, 27, 44, 0)
s = 29: (0, 88, 8, 11, 36, 7, 21, 24, 33, 17, 38, 0)
s = 30: (0, 152, 7, 8, 43, 10, 9, 27, 20, 12, 40, 0)
s = 31: (0, 95, 19, 9, 55, 13, 8, 28, 38, 23, 32, 0)
s = 32: (0, 119, 14, 7, 33, 10, 9, 35, 27, 14, 39, 0)
s = 33: (0, 99, 11, 11, 46, 12, 11, 19, 33, 16, 28, 0)
s = 34: (0, 161, 9, 10, 65, 10, 14, 30, 33, 14, 51, 0)
s = 35: (0, 95, 14, 8, 43, 13, 13, 28, 47, 13, 34, 0)
s = 36: (0, 87, 20, 11, 35, 10, 12, 25, 21, 24, 67, 0)
s = 37: (0, 140, 15, 7, 41, 11, 12, 25, 24, 15, 26, 0)
s = 38: (0, 110, 14, 13, 33, 18, 11, 35, 26, 13, 48, 0)
s = 39: (0, 122, 14, 12, 42, 11, 10, 18, 30, 17, 28, 0)
s = 40: (0, 144, 8, 6, 49, 10, 11, 22, 19, 12, 29, 0)
s = 41: (0, 139, 11, 7, 52, 13, 20, 30, 33, 12, 37, 0)
s = 42: (0, 149, 12, 8, 43, 11, 11, 36, 22, 16, 26, 0)
s = 43: (0, 122, 12, 9, 61, 12, 13, 21, 37, 14, 23, 0)
s = 44: (0, 133, 8, 7, 37, 10, 12, 30, 54, 15, 60, 0)
s = 45: (0, 142, 13, 8, 58, 14, 11, 37, 40, 14, 27, 0)
s = 46: (0, 100, 10, 7, 35, 8, 13, 18, 33, 16, 47, 0)
s = 47: (0, 126, 11, 7, 61, 9, 13, 24, 18, 17, 56, 0)
s = 48: (0, 69, 19, 9, 35, 9, 14, 23, 25, 26, 44, 0)
s = 49: (0, 156, 10, 10, 33, 17, 21, 21, 18, 14, 35, 0)
s = 50: (0, 76, 11, 11, 25, 13, 19, 21, 39, 10, 38, 0)
s = 51: (0, 92, 20, 9, 42, 8, 18, 18, 23, 11, 41, 0)
s = 52: (0, 202, 13, 11, 25, 19, 13, 19, 19, 21, 44, 0)
s = 53: (0, 110, 9, 10, 35, 10, 18, 16, 37, 14, 33, 0)
s = 54: (0, 93, 18, 12, 41, 11, 17, 25, 35, 17, 46, 0)
s = 55: (0, 180, 12, 8, 41, 8, 12, 33, 50, 21, 39, 0)
s = 56: (0, 136, 9, 13, 39, 9, 14, 20, 21, 20, 58, 0)
s = 57: (0, 131, 8, 7, 43, 9, 10, 17, 32, 18, 36, 0)
s = 58: (0, 98, 13, 6, 36, 9, 10, 24, 43, 19, 45, 0)
s = 59: (0, 148, 25, 5, 72, 11, 9, 22, 21, 18, 36, 0)
s = 60: (0, 104, 17, 6, 53, 7, 12, 20, 16, 15, 44, 0)
s = 61: (0, 114, 16, 8, 29, 11, 25, 22, 27, 13, 60, 0)
s = 62: (0, 97, 8, 8, 46, 10, 8, 31, 26, 10, 58, 0)
s = 63: (0, 128, 16, 7, 48, 9, 11, 22, 33, 27, 35, 0)
s = 64: (0, 144, 18, 12, 47, 11, 12, 19, 32, 21, 39, 0)
s = 65: (0, 94, 20, 5, 28, 16, 11, 14, 50, 13, 29, 0)
s = 66: (0, 143, 15, 8, 33, 8, 14, 30, 53, 16, 36, 0)
s = 67: (0, 117, 12, 6, 30, 10, 17, 37, 32, 14, 56, 0)
s = 68: (0, 129, 14, 10, 26, 15, 15, 17, 17, 23, 40, 0)
s = 69: (0, 91, 11, 8, 55, 16, 18, 22, 36, 20, 29, 0)
s = 70: (0, 109, 17, 7, 39, 8, 10, 15, 21, 11, 46, 0)
s = 71: (0, 97, 7, 11, 50, 9, 11, 33, 23, 19, 36, 0)
s = 72: (0, 172, 22, 8, 28, 11, 13, 25, 28, 12, 52, 0)
s = 73: (0, 116, 20, 8, 41, 9, 20, 19, 47, 11, 30, 0)
s = 74: (0, 120, 8, 12, 28, 7, 16, 28, 59, 18, 28, 0)
s = 75: (0, 80, 14, 9, 41, 8, 14, 20, 31, 18, 53, 0)
s = 76: (0, 71, 14, 6, 41, 18, 9, 24, 36, 10, 33, 0)
s = 77: (0, 132, 19, 10, 63, 6, 8, 28, 36, 17, 36, 0)
s = 78: (0, 110, 17, 9, 26, 7, 14, 41, 27, 11, 27, 0)
s = 79: (0, 192, 12, 15, 46, 8, 12, 46, 26, 17, 24, 0)
s = 80: (0, 102, 18, 9, 69, 18, 8, 21, 44, 16, 25, 0)
s = 81: (0, 118, 10, 7, 36, 6, 20, 19, 36, 21, 41, 0)
s = 82: (0, 124, 11, 11, 69, 9, 9, 21, 38, 12, 34, 0)
s = 83: (0, 141, 8, 8, 46, 12, 17, 41, 28, 17, 43, 0)
s = 84: (0, 104, 20, 5, 43, 7, 9, 31, 25, 9, 28, 0)
s = 85: (0, 104, 8, 6, 24, 11, 18, 28, 27, 12, 25, 0)
s = 86: (0, 135, 17, 7, 40, 14, 15, 14, 20, 21, 46, 0)
s = 87: (0, 162, 19, 8, 32, 7, 14, 14, 28, 12, 32, 0)
s = 88: (0, 132, 19, 5, 35, 9, 11, 19, 22, 19, 28, 0)
s = 89: (0, 97, 11, 7, 49, 14, 11, 27, 23, 16, 54, 0)
s = 90: (0, 89, 11, 12, 36, 10, 11, 34, 19, 20, 45, 0)
s = 91: (0, 129, 13, 9, 61, 6, 10, 25, 17, 21, 44, 0)
s = 92: (0, 127, 11, 8, 76, 12, 15, 37, 26, 9, 30, 0)
s = 93: (0, 100, 14, 6, 35, 17, 11, 32, 29, 26, 48, 0)
s = 94: (0, 121, 10, 7, 37, 8, 13, 31, 38, 20, 35, 0)
s = 95: (0, 138, 16, 7, 43, 10, 12, 29, 24, 16, 39, 0)
s = 96: (0, 169, 11, 7, 32, 13, 11, 31, 36, 10, 57, 0)
s = 97: (0, 156, 13, 8, 54, 12, 15, 25, 27, 11, 53, 0)
s = 98: (0, 161, 11, 6, 57, 12, 21, 22, 37, 19, 42, 0)
s = 99: (0, 130, 16, 14, 37, 15, 14, 17, 43, 15, 34, 0)
s = 100: (0, 146, 16, 5, 46, 9, 13, 27, 35, 16, 30, 0)
s = 101: (0, 170, 13, 10, 59, 11, 10, 21, 42, 24, 32, 0)
s = 102: (0, 107, 9, 7, 31, 9, 10, 29, 28, 18, 28, 0)
s = 103: (0, 184, 18, 9, 40, 11, 12, 22, 33, 21, 44, 0)
s = 104: (0, 99, 12, 8, 54, 10, 12, 23, 30, 11, 58, 0)
s = 105: (0, 157, 22, 11, 44, 8, 12, 20, 27, 14, 28, 0)
s = 106: (0, 80, 12, 10, 50, 19, 9, 16, 41, 16, 49, 0)
s = 107: (0, 82, 12, 11, 33, 15, 12, 25, 36, 11, 44, 0)
s = 108: (0, 160, 11, 8, 46, 15, 19, 15, 22, 20, 55, 0)
s = 109: (0, 88, 13, 11, 47, 17, 13, 28, 28, 11, 34, 0)
s = 110: (0, 121, 20, 8, 41, 7, 10, 29, 34, 12, 64, 0)
s = 111: (0, 77, 9, 6, 32, 9, 16, 25, 29, 18, 38, 0)
s = 112: (0, 137, 19, 6, 36, 9, 10, 25, 20, 21, 37, 0)
s = 113: (0, 108, 10, 9, 45, 15, 11, 27, 41, 14, 52, 0)
s = 114: (0, 110, 10, 7, 27, 11, 9, 15, 27, 12, 39, 0)
s = 115: (0, 79, 14, 8, 26, 14, 9, 18, 32, 12, 34, 0)
s = 116: (0, 187, 23, 6, 38, 10, 10, 25, 39, 19, 36, 0)
s = 117: (0, 226, 19, 8, 37, 15, 19, 37, 24, 14, 64, 0)
s = 118: (0, 158, 16, 9, 24, 8, 10, 35, 32, 19, 39, 0)
s = 119: (0, 79, 12, 10, 46, 8, 9, 29, 31, 11, 46, 0)
s = 120: (0, 100, 10, 10, 45, 11, 18, 30, 31, 17, 45, 0)
s = 121: (0, 137, 12, 8, 42, 7, 9, 22, 23, 14, 39, 0)
s = 122: (0, 94, 10, 6, 32, 14, 12, 28, 37, 20, 55, 0)
s = 123: (0, 170, 10, 11, 35, 16, 19, 15, 34, 21, 49, 0)
s = 124: (0, 170, 13, 7, 58, 10, 17, 36, 37, 18, 39, 0)
s = 125: (0, 159, 20, 8, 34, 9, 15, 19, 36, 15, 38, 0)
s = 126: (0, 122, 15, 12, 28, 7, 10, 24, 39, 21, 33, 0)
s = 127: (0, 85, 18, 12, 39, 9, 11, 34, 31, 23, 52, 0)
s = 128: (0, 116, 13, 5, 38, 16, 20, 25, 21, 17, 26, 0)
s = 129: (0, 132, 17, 12, 53, 14, 8, 25, 25, 22, 27, 0)
s = 130: (0, 112, 9, 6, 61, 17, 8, 31, 30, 17, 58, 0)
s = 131: (0, 78, 14, 10, 45, 9, 18, 36, 31, 13, 30, 0)
s = 132: (0, 102, 8, 10, 35, 9, 9, 23, 33, 19, 43, 0)
s = 133: (0, 196, 15, 11, 55, 12, 9, 19, 33, 14, 38, 0)
s = 134: (0, 155, 12, 8, 49, 8, 13, 16, 32, 23, 43, 0)
s = 135: (0, 134, 16, 8, 60, 9, 17, 30, 29, 16, 40, 0)
s = 136: (0, 139, 11, 11, 38, 9, 10, 22, 40, 13, 41, 0)
s = 137: (0, 142, 10, 6, 41, 8, 14, 25, 34, 18, 47, 0)
s = 138: (0, 93, 11, 9, 44, 7, 15, 36, 38, 24, 25, 0)
s = 139: (0, 167, 14, 7, 38, 13, 21, 28, 30, 12, 33, 0)
s = 140: (0, 130, 15, 14, 47, 9, 12, 18, 28, 20, 25, 0)
s = 141: (0, 114, 15, 7, 37, 11, 25, 26, 17, 18, 52, 0)
s = 142: (0, 123, 13, 7, 23, 9, 7, 19, 38, 12, 31, 0)
s = 143: (0, 121, 14, 6, 43, 10, 14, 16, 29, 20, 39, 0)
s = 144: (0, 116, 14, 9, 22, 7, 8, 26, 22, 12, 59, 0)
s = 145: (0, 168, 19, 7, 52, 10, 24, 21, 42, 15, 35, 0)
s = 146: (0, 135, 9, 13, 38, 10, 12, 19, 41, 15, 40, 0)
s = 147: (0, 105, 20, 7, 36, 9, 17, 27, 26, 16, 61, 0)
s = 148: (0, 103, 8, 6, 49, 12, 16, 21, 44, 11, 56, 0)
s = 149: (0, 165, 16, 9, 38, 12, 10, 15, 27, 16, 42, 0)
s = 150: (0, 149, 10, 11, 27, 7, 15, 21, 46, 13, 46, 0)
s = 151: (0, 124, 14, 10, 34, 7, 20, 14, 30, 15, 31, 0)
s = 152: (0, 209, 14, 12, 39, 10, 13, 27, 41, 20, 38, 0)
s = 153: (0, 100, 13, 5, 64, 9, 9, 36, 19, 16, 57, 0)
s = 154: (0, 119, 18, 6, 26, 9, 16, 22, 55, 11, 42, 0)
s = 155: (0, 98, 13, 11, 35, 10, 11, 23, 42, 18, 24, 0)
s = 156: (0, 96, 10, 8, 39, 10, 22, 30, 21, 15, 25, 0)
s = 157: (0, 166, 13, 9, 72, 9, 18, 19, 24, 24, 49, 0)
s = 158: (0, 136, 18, 8, 79, 13, 14, 20, 24, 12, 56, 0)
s = 159: (0, 180, 12, 11, 67, 7, 17, 29, 45, 15, 63, 0)
s = 160: (0, 137, 14, 8, 24, 17, 9, 21, 34, 25, 28, 0)
s = 161: (0, 162, 13, 11, 35, 7, 10, 23, 21, 12, 40, 0)
s = 162: (0, 133, 11, 8, 34, 8, 16, 17, 26, 24, 41, 0)
s = 163: (0, 133, 12, 9, 30, 7, 8, 27, 34, 25, 32, 0)
s = 164: (0, 75, 9, 5, 50, 13, 14, 17, 36, 23, 53, 0)
s = 165: (0, 81, 12, 7, 34, 8, 22, 23, 19, 23, 37, 0)
s = 166: (0, 73, 14, 8, 49, 8, 12, 22, 27, 26, 39, 0)
s = 167: (0, 151, 18, 5, 42, 15, 16, 29, 25, 17, 45, 0)
s = 168: (0, 75, 10, 5, 34, 15, 13, 17, 50, 18, 53, 0)
s = 169: (0, 69, 11, 6, 57, 9, 16, 18, 40, 20, 55, 0)
s = 170: (0, 94, 10, 11, 40, 11, 12, 35, 23, 18, 44, 0)
s = 171: (0, 154, 13, 7, 70, 10, 11, 37, 22, 10, 63, 0)
s = 172: (0, 163, 13, 7, 41, 12, 20, 32, 48, 17, 54, 0)
s = 173: (0, 131, 13, 12, 55, 9, 15, 21, 32, 25, 66, 0)
s = 174: (0, 94, 15, 8, 38, 9, 10, 27, 28, 13, 33, 0)
s = 175: (0, 162, 17, 10, 43, 14, 8, 22, 48, 12, 42, 0)
s = 176: (0, 102, 10, 9, 29, 10, 12, 18, 35, 17, 30, 0)
s = 177: (0, 121, 18, 8, 45, 8, 20, 16, 28, 14, 34, 0)
s = 178: (0, 98, 13, 8, 33, 8, 11, 27, 43, 20, 55, 0)
s = 179: (0, 150, 11, 9, 53, 12, 10, 16, 44, 19, 52, 0)
s = 180: (0, 87, 14, 6, 47, 15, 19, 19, 32, 10, 45, 0)
s = 181: (0, 112, 17, 5, 57, 16, 14, 17, 29, 16, 27, 0)
s = 182: (0, 104, 13, 7, 47, 11, 18, 22, 33, 13, 37, 0)
s = 183: (0, 206, 20, 11, 46, 15, 7, 32, 34, 15, 37, 0)
s = 184: (0, 179, 16, 9, 29, 14, 9, 29, 22, 24, 34, 0)
s = 185: (0, 137, 11, 7, 25, 10, 10, 34, 35, 15, 36, 0)
s = 186: (0, 90, 11, 12, 38, 11, 19, 32, 35, 16, 32, 0)
s = 187: (0, 156, 12, 10, 31, 12, 8, 21, 35, 19, 30, 0)
s = 188: (0, 136, 18, 7, 52, 9, 10, 28, 43, 23, 30, 0)
s = 189: (0, 77, 13, 6, 48, 10, 18, 15, 19, 11, 46, 0)
s = 190: (0, 110, 13, 7, 32, 7, 16, 22, 39, 16, 38, 0)
s = 191: (0, 172, 15, 14, 49, 19, 21, 27, 26, 9, 24, 0)
s = 192: (0, 216, 12, 8, 32, 8, 13, 21, 31, 17, 41, 0)
s = 193: (0, 120, 11, 8, 24, 11, 18, 18, 26, 10, 50, 0)
s = 194: (0, 146, 12, 7, 33, 7, 15, 19, 30, 22, 45, 0)
s = 195: (0, 81, 14, 7, 34, 6, 16, 24, 24, 25, 28, 0)
s = 196: (0, 124, 11, 13, 43, 15, 13, 19, 21, 20, 31, 0)
s = 197: (0, 147, 21, 5, 37, 12, 10, 18, 29, 13, 40, 0)
s = 198: (0, 116, 21, 9, 32, 9, 15, 19, 21, 21, 45, 0)
s = 199: (0, 168, 11, 14, 49, 10, 9, 43, 39, 21, 58, 0)
s = 200: (0, 152, 12, 15, 59, 7, 17, 24, 36, 19, 34, 0)
------------------------------------------------------------------------
RESOURCE k = 2
s = 1: (0, 34, 7, 8, 11, 6, 2, 14, 8, 8, 39, 0)
s = 2: (0, 26, 8, 12, 8, 10, 2, 11, 10, 5, 30, 0)
s = 3: (0, 34, 13, 9, 8, 6, 2, 8, 9, 8, 22, 0)
s = 4: (0, 31, 9, 11, 5, 5, 2, 9, 10, 4, 29, 0)
s = 5: (0, 34, 11, 6, 6, 6, 2, 11, 6, 5, 25, 0)
s = 6: (0, 28, 12, 6, 8, 7, 2, 9, 11, 7, 29, 0)
s = 7: (0, 31, 6, 8, 5, 7, 3, 12, 8, 5, 18, 0)
s = 8: (0, 47, 10, 10, 4, 7, 4, 17, 7, 8, 24, 0)
s = 9: (0, 39, 6, 9, 8, 11, 3, 10, 11, 6, 28, 0)
s = 10: (0, 34, 13, 10, 10, 5, 3, 19, 13, 5, 29, 0)
s = 11: (0, 51, 7, 10, 5, 7, 2, 18, 9, 7, 19, 0)
s = 12: (0, 43, 13, 12, 8, 7, 2, 8, 8, 9, 21, 0)
s = 13: (0, 29, 11, 6, 7, 10, 2, 13, 14, 9, 23, 0)
s = 14: (0, 38, 7, 13, 5, 10, 3, 7, 10, 10, 33, 0)
s = 15: (0, 37, 12, 9, 11, 7, 2, 12, 11, 9, 21, 0)
s = 16: (0, 44, 8, 8, 6, 4, 2, 9, 11, 8, 20, 0)
s = 17: (0, 33, 6, 6, 6, 10, 2, 20, 12, 13, 15, 0)
s = 18: (0, 38, 7, 11, 6, 6, 3, 12, 7, 9, 33, 0)
s = 19: (0, 24, 17, 7, 7, 5, 2, 17, 12, 8, 17, 0)
s = 20: (0, 31, 14, 12, 7, 6, 2, 13, 9, 7, 23, 0)
s = 21: (0, 37, 10, 10, 7, 10, 2, 15, 10, 7, 24, 0)
s = 22: (0, 52, 9, 8, 4, 7, 3, 12, 9, 9, 17, 0)
s = 23: (0, 42, 9, 10, 7, 4, 3, 19, 8, 8, 15, 0)
s = 24: (0, 39, 8, 12, 8, 10, 3, 12, 10, 6, 18, 0)
s = 25: (0, 61, 12, 9, 5, 8, 2, 8, 6, 11, 32, 0)
s = 26: (0, 22, 9, 17, 5, 8, 2, 10, 8, 5, 39, 0)
s = 27: (0, 35, 11, 7, 7, 10, 2, 9, 9, 13, 27, 0)
s = 28: (0, 49, 9, 6, 4, 6, 3, 9, 15, 12, 27, 0)
s = 29: (0, 25, 6, 12, 6, 5, 4, 12, 10, 8, 23, 0)
s = 30: (0, 44, 5, 9, 7, 7, 2, 14, 6, 6, 24, 0)
s = 31: (0, 27, 13, 10, 8, 9, 2, 14, 12, 10, 19, 0)
s = 32: (0, 34, 10, 8, 5, 7, 2, 18, 8, 7, 24, 0)
s = 33: (0, 29, 8, 13, 7, 8, 2, 10, 10, 7, 17, 0)
s = 34: (0, 46, 6, 12, 10, 7, 3, 15, 10, 6, 31, 0)
s = 35: (0, 28, 10, 9, 7, 9, 2, 14, 15, 6, 21, 0)
s = 36: (0, 25, 14, 12, 5, 7, 2, 13, 7, 11, 41, 0)
s = 37: (0, 40, 10, 8, 6, 8, 2, 13, 8, 7, 16, 0)
s = 38: (0, 32, 10, 15, 5, 13, 2, 18, 8, 6, 29, 0)
s = 39: (0, 35, 10, 13, 6, 8, 2, 9, 9, 8, 17, 0)
s = 40: (0, 42, 5, 7, 7, 7, 2, 11, 6, 5, 18, 0)
s = 41: (0, 40, 8, 8, 8, 9, 4, 15, 10, 6, 23, 0)
s = 42: (0, 43, 9, 9, 7, 8, 2, 18, 7, 7, 16, 0)
s = 43: (0, 35, 8, 10, 9, 9, 2, 11, 11, 7, 14, 0)
s = 44: (0, 38, 5, 8, 6, 7, 2, 15, 17, 7, 36, 0)
s = 45: (0, 41, 9, 9, 9, 10, 2, 19, 12, 7, 17, 0)
s = 46: (0, 29, 7, 8, 5, 6, 2, 9, 10, 7, 28, 0)
s = 47: (0, 36, 8, 7, 9, 7, 2, 12, 6, 8, 34, 0)
s = 48: (0, 20, 13, 10, 5, 6, 3, 12, 8, 12, 26, 0)
s = 49: (0, 45, 7, 12, 5, 12, 4, 11, 6, 6, 21, 0)
s = 50: (0, 22, 8, 13, 4, 9, 3, 11, 12, 5, 23, 0)
s = 51: (0, 27, 14, 10, 6, 6, 3, 9, 7, 5, 25, 0)
s = 52: (0, 58, 9, 12, 4, 13, 2, 10, 6, 10, 27, 0)
s = 53: (0, 32, 6, 11, 5, 7, 3, 8, 12, 6, 20, 0)
s = 54: (0, 27, 12, 14, 6, 8, 3, 13, 11, 8, 28, 0)
s = 55: (0, 52, 9, 8, 6, 6, 2, 17, 15, 9, 24, 0)
s = 56: (0, 39, 6, 14, 6, 6, 3, 10, 7, 9, 35, 0)
s = 57: (0, 38, 6, 8, 7, 6, 2, 9, 10, 8, 22, 0)
s = 58: (0, 28, 9, 7, 6, 6, 2, 12, 13, 8, 27, 0)
s = 59: (0, 43, 17, 5, 11, 8, 2, 11, 7, 8, 22, 0)
s = 60: (0, 30, 12, 7, 8, 5, 2, 10, 5, 7, 27, 0)
s = 61: (0, 33, 11, 8, 5, 8, 4, 11, 8, 6, 36, 0)
s = 62: (0, 28, 5, 9, 7, 7, 2, 16, 8, 5, 35, 0)
s = 63: (0, 37, 11, 7, 7, 7, 2, 11, 10, 12, 21, 0)
s = 64: (0, 42, 13, 13, 7, 8, 2, 10, 10, 10, 24, 0)
s = 65: (0, 27, 14, 6, 4, 11, 2, 7, 15, 6, 18, 0)
s = 66: (0, 41, 11, 9, 5, 6, 3, 15, 16, 7, 22, 0)
s = 67: (0, 34, 9, 6, 5, 7, 3, 19, 10, 6, 34, 0)
s = 68: (0, 37, 10, 11, 4, 10, 3, 9, 5, 10, 24, 0)
s = 69: (0, 26, 8, 9, 8, 11, 3, 11, 11, 9, 18, 0)
s = 70: (0, 32, 12, 8, 6, 5, 2, 8, 7, 5, 28, 0)
s = 71: (0, 28, 5, 12, 8, 7, 2, 17, 7, 8, 22, 0)
s = 72: (0, 50, 15, 9, 4, 8, 2, 13, 9, 6, 31, 0)
s = 73: (0, 34, 14, 8, 6, 7, 4, 10, 14, 5, 18, 0)
s = 74: (0, 35, 6, 14, 4, 5, 3, 14, 18, 8, 17, 0)
s = 75: (0, 23, 10, 10, 6, 6, 3, 10, 10, 8, 32, 0)
s = 76: (0, 21, 10, 7, 6, 13, 2, 12, 11, 5, 20, 0)
s = 77: (0, 38, 13, 11, 9, 5, 2, 14, 11, 8, 22, 0)
s = 78: (0, 32, 12, 10, 4, 5, 3, 21, 9, 5, 17, 0)
s = 79: (0, 55, 8, 17, 7, 6, 2, 23, 8, 8, 15, 0)
s = 80: (0, 30, 13, 10, 10, 13, 2, 11, 14, 7, 15, 0)
s = 81: (0, 34, 7, 8, 6, 4, 3, 10, 11, 10, 25, 0)
s = 82: (0, 36, 7, 12, 10, 6, 2, 11, 12, 6, 20, 0)
s = 83: (0, 41, 6, 9, 7, 8, 3, 21, 9, 8, 26, 0)
s = 84: (0, 30, 14, 6, 7, 5, 2, 16, 8, 4, 17, 0)
s = 85: (0, 30, 6, 7, 4, 8, 3, 14, 8, 6, 15, 0)
s = 86: (0, 39, 12, 8, 6, 10, 3, 7, 6, 9, 28, 0)
s = 87: (0, 47, 13, 9, 5, 5, 3, 7, 9, 6, 19, 0)
s = 88: (0, 38, 14, 6, 5, 7, 2, 10, 7, 9, 17, 0)
s = 89: (0, 28, 8, 8, 7, 10, 2, 14, 7, 7, 33, 0)
s = 90: (0, 26, 7, 13, 6, 7, 2, 17, 6, 9, 27, 0)
s = 91: (0, 37, 9, 10, 9, 4, 2, 13, 5, 10, 27, 0)
s = 92: (0, 37, 8, 9, 11, 8, 3, 19, 8, 4, 18, 0)
s = 93: (0, 29, 10, 6, 5, 12, 2, 16, 9, 12, 29, 0)
s = 94: (0, 35, 7, 8, 6, 6, 2, 16, 12, 9, 21, 0)
s = 95: (0, 40, 11, 8, 7, 7, 2, 15, 8, 7, 24, 0)
s = 96: (0, 49, 7, 8, 5, 10, 2, 16, 11, 5, 34, 0)
s = 97: (0, 45, 9, 9, 8, 9, 3, 13, 8, 5, 32, 0)
s = 98: (0, 46, 8, 7, 9, 9, 4, 11, 11, 9, 25, 0)
s = 99: (0, 37, 11, 16, 6, 11, 3, 9, 13, 7, 20, 0)
s = 100: (0, 42, 11, 6, 7, 7, 2, 14, 11, 7, 18, 0)
s = 101: (0, 49, 9, 11, 9, 8, 2, 11, 13, 11, 20, 0)
s = 102: (0, 31, 7, 7, 5, 6, 2, 15, 9, 8, 17, 0)
s = 103: (0, 53, 12, 10, 6, 8, 2, 11, 10, 9, 26, 0)
s = 104: (0, 29, 9, 9, 8, 7, 2, 12, 9, 5, 35, 0)
s = 105: (0, 45, 15, 12, 7, 5, 2, 10, 8, 6, 17, 0)
s = 106: (0, 23, 8, 11, 8, 13, 2, 8, 13, 7, 30, 0)
s = 107: (0, 24, 9, 13, 5, 11, 2, 13, 11, 5, 27, 0)
s = 108: (0, 46, 8, 9, 7, 10, 3, 8, 7, 9, 33, 0)
s = 109: (0, 25, 9, 12, 7, 12, 2, 14, 9, 5, 21, 0)
s = 110: (0, 35, 14, 9, 6, 5, 2, 15, 11, 6, 39, 0)
s = 111: (0, 22, 6, 7, 5, 7, 3, 13, 9, 8, 23, 0)
s = 112: (0, 39, 13, 7, 6, 6, 2, 13, 6, 9, 22, 0)
s = 113: (0, 31, 7, 10, 7, 11, 2, 14, 13, 6, 32, 0)
s = 114: (0, 32, 7, 8, 4, 8, 2, 8, 9, 6, 24, 0)
s = 115: (0, 23, 10, 9, 4, 10, 2, 9, 10, 6, 21, 0)
s = 116: (0, 54, 16, 6, 6, 7, 2, 13, 12, 8, 22, 0)
s = 117: (0, 65, 13, 9, 6, 11, 3, 19, 8, 6, 39, 0)
s = 118: (0, 46, 11, 10, 4, 6, 2, 18, 10, 9, 24, 0)
s = 119: (0, 23, 8, 11, 7, 6, 2, 15, 10, 5, 28, 0)
s = 120: (0, 29, 7, 11, 7, 8, 3, 15, 10, 8, 27, 0)
s = 121: (0, 40, 8, 9, 6, 5, 2, 11, 7, 7, 23, 0)
s = 122: (0, 27, 7, 7, 5, 10, 2, 14, 12, 9, 33, 0)
s = 123: (0, 49, 7, 12, 5, 11, 3, 8, 10, 10, 29, 0)
s = 124: (0, 49, 9, 8, 9, 7, 3, 18, 12, 8, 24, 0)
s = 125: (0, 46, 14, 9, 5, 6, 3, 10, 11, 7, 23, 0)
s = 126: (0, 35, 11, 13, 4, 5, 2, 12, 12, 9, 20, 0)
s = 127: (0, 25, 12, 14, 6, 6, 2, 17, 10, 10, 31, 0)
s = 128: (0, 34, 9, 6, 6, 12, 3, 13, 7, 8, 16, 0)
s = 129: (0, 38, 12, 13, 8, 10, 2, 13, 8, 10, 16, 0)
s = 130: (0, 32, 7, 7, 9, 12, 2, 16, 9, 8, 35, 0)
s = 131: (0, 23, 10, 11, 7, 7, 3, 18, 10, 6, 18, 0)
s = 132: (0, 29, 5, 11, 5, 6, 2, 12, 10, 9, 26, 0)
s = 133: (0, 56, 11, 12, 8, 8, 2, 10, 10, 7, 23, 0)
s = 134: (0, 45, 8, 9, 7, 6, 2, 8, 10, 11, 26, 0)
s = 135: (0, 39, 11, 9, 9, 6, 3, 15, 9, 7, 24, 0)
s = 136: (0, 40, 8, 12, 6, 6, 2, 11, 12, 6, 25, 0)
s = 137: (0, 41, 7, 7, 6, 6, 3, 13, 10, 8, 28, 0)
s = 138: (0, 27, 8, 11, 7, 5, 3, 18, 12, 11, 15, 0)
s = 139: (0, 48, 10, 8, 6, 9, 4, 14, 9, 6, 20, 0)
s = 140: (0, 38, 11, 15, 7, 6, 2, 9, 9, 9, 15, 0)
s = 141: (0, 33, 11, 8, 6, 8, 4, 13, 5, 8, 32, 0)
s = 142: (0, 36, 9, 8, 4, 6, 2, 10, 12, 5, 19, 0)
s = 143: (0, 35, 10, 7, 7, 7, 3, 8, 9, 9, 24, 0)
s = 144: (0, 34, 10, 10, 4, 5, 2, 13, 7, 6, 35, 0)
s = 145: (0, 48, 13, 8, 8, 7, 4, 11, 13, 7, 21, 0)
s = 146: (0, 39, 6, 14, 6, 7, 2, 10, 13, 7, 24, 0)
s = 147: (0, 30, 14, 7, 6, 6, 3, 14, 8, 7, 37, 0)
s = 148: (0, 30, 6, 6, 7, 9, 3, 11, 13, 5, 34, 0)
s = 149: (0, 47, 12, 10, 6, 9, 2, 8, 8, 7, 25, 0)
s = 150: (0, 43, 7, 12, 4, 5, 3, 11, 14, 6, 28, 0)
s = 151: (0, 36, 10, 12, 5, 5, 3, 7, 9, 7, 19, 0)
s = 152: (0, 60, 10, 13, 6, 7, 2, 14, 13, 9, 23, 0)
s = 153: (0, 29, 9, 5, 10, 6, 2, 18, 6, 7, 34, 0)
s = 154: (0, 34, 13, 6, 4, 7, 3, 11, 17, 5, 25, 0)
s = 155: (0, 28, 9, 12, 5, 7, 2, 12, 13, 8, 14, 0)
s = 156: (0, 28, 7, 9, 6, 7, 4, 15, 7, 7, 15, 0)
s = 157: (0, 48, 9, 10, 11, 7, 3, 10, 8, 11, 30, 0)
s = 158: (0, 39, 12, 9, 12, 9, 3, 10, 8, 5, 34, 0)
s = 159: (0, 52, 9, 12, 10, 5, 3, 15, 14, 7, 38, 0)
s = 160: (0, 39, 10, 8, 4, 12, 2, 11, 11, 11, 17, 0)
s = 161: (0, 47, 9, 12, 5, 5, 2, 12, 7, 6, 24, 0)
s = 162: (0, 38, 8, 9, 5, 6, 3, 9, 8, 11, 25, 0)
s = 163: (0, 38, 8, 11, 5, 5, 2, 14, 11, 11, 19, 0)
s = 164: (0, 22, 6, 5, 8, 9, 3, 9, 11, 10, 32, 0)
s = 165: (0, 24, 8, 8, 5, 6, 4, 12, 6, 10, 22, 0)
s = 166: (0, 21, 10, 9, 7, 6, 2, 11, 9, 11, 23, 0)
s = 167: (0, 43, 13, 6, 6, 11, 3, 15, 8, 8, 27, 0)
s = 168: (0, 22, 7, 5, 5, 11, 2, 9, 15, 8, 32, 0)
s = 169: (0, 20, 8, 6, 9, 7, 3, 9, 12, 9, 33, 0)
s = 170: (0, 27, 7, 12, 6, 8, 2, 18, 7, 8, 26, 0)
s = 171: (0, 44, 9, 8, 10, 7, 2, 19, 7, 5, 38, 0)
s = 172: (0, 47, 9, 8, 6, 8, 4, 16, 15, 8, 33, 0)
s = 173: (0, 38, 9, 14, 8, 7, 3, 11, 10, 11, 40, 0)
s = 174: (0, 27, 10, 9, 6, 6, 2, 14, 9, 6, 20, 0)
s = 175: (0, 47, 12, 12, 7, 10, 2, 11, 15, 5, 26, 0)
s = 176: (0, 29, 7, 10, 5, 7, 2, 9, 11, 8, 18, 0)
s = 177: (0, 35, 13, 9, 7, 6, 3, 8, 9, 6, 21, 0)
s = 178: (0, 28, 9, 9, 5, 5, 2, 14, 13, 9, 33, 0)
s = 179: (0, 43, 8, 10, 8, 9, 2, 8, 13, 9, 31, 0)
s = 180: (0, 25, 10, 6, 7, 11, 3, 10, 10, 5, 27, 0)
s = 181: (0, 32, 12, 6, 9, 11, 3, 9, 9, 7, 16, 0)
s = 182: (0, 30, 9, 8, 7, 8, 3, 11, 10, 6, 22, 0)
s = 183: (0, 59, 14, 12, 7, 11, 2, 16, 11, 7, 22, 0)
s = 184: (0, 52, 11, 10, 5, 10, 2, 15, 7, 11, 21, 0)
s = 185: (0, 39, 8, 8, 4, 7, 2, 17, 11, 7, 22, 0)
s = 186: (0, 26, 8, 14, 6, 8, 3, 16, 11, 7, 19, 0)
s = 187: (0, 45, 9, 11, 5, 8, 2, 11, 11, 9, 18, 0)
s = 188: (0, 39, 13, 8, 8, 6, 2, 14, 13, 10, 18, 0)
s = 189: (0, 22, 9, 7, 7, 7, 3, 8, 6, 5, 28, 0)
s = 190: (0, 32, 9, 8, 5, 5, 3, 11, 12, 7, 23, 0)
s = 191: (0, 49, 10, 16, 7, 14, 4, 14, 8, 4, 14, 0)
s = 192: (0, 62, 9, 9, 5, 6, 2, 11, 10, 8, 25, 0)
s = 193: (0, 35, 8, 9, 4, 8, 3, 9, 8, 5, 30, 0)
s = 194: (0, 42, 9, 8, 5, 5, 3, 10, 9, 10, 27, 0)
s = 195: (0, 24, 10, 8, 5, 4, 3, 12, 8, 11, 17, 0)
s = 196: (0, 36, 7, 14, 7, 10, 2, 10, 7, 9, 19, 0)
s = 197: (0, 42, 15, 6, 6, 8, 2, 9, 9, 6, 24, 0)
s = 198: (0, 34, 14, 10, 5, 7, 3, 10, 7, 10, 27, 0)
s = 199: (0, 48, 8, 15, 7, 7, 2, 22, 12, 9, 35, 0)
s = 200: (0, 44, 9, 17, 9, 5, 3, 12, 11, 8, 21, 0)
------------------------------------------------------------------------
RESOURCE k = 3
s = 1: (0, 50, 8, 9, 16, 7, 7, 12, 20, 7, 32, 0)
s = 2: (0, 39, 8, 13, 11, 12, 7, 9, 26, 4, 25, 0)
s = 3: (0, 51, 14, 10, 11, 7, 8, 7, 23, 7, 18, 0)
s = 4: (0, 46, 10, 12, 7, 6, 8, 7, 27, 4, 24, 0)
s = 5: (0, 51, 12, 7, 9, 6, 7, 9, 15, 5, 21, 0)
s = 6: (0, 42, 14, 6, 11, 8, 7, 8, 27, 6, 24, 0)
s = 7: (0, 47, 7, 9, 8, 8, 11, 10, 21, 4, 15, 0)
s = 8: (0, 70, 11, 11, 6, 8, 16, 14, 19, 7, 20, 0)
s = 9: (0, 58, 7, 10, 12, 12, 11, 8, 30, 5, 23, 0)
s = 10: (0, 51, 14, 11, 14, 5, 11, 16, 34, 5, 24, 0)
s = 11: (0, 76, 7, 11, 8, 8, 9, 15, 22, 6, 16, 0)
s = 12: (0, 64, 14, 13, 12, 8, 8, 7, 20, 7, 18, 0)
s = 13: (0, 43, 12, 7, 10, 11, 8, 11, 36, 8, 19, 0)
s = 14: (0, 57, 8, 14, 7, 12, 11, 6, 27, 9, 27, 0)
s = 15: (0, 55, 14, 10, 16, 7, 7, 10, 27, 8, 18, 0)
s = 16: (0, 65, 9, 9, 9, 5, 8, 7, 28, 7, 17, 0)
s = 17: (0, 49, 6, 7, 8, 12, 8, 16, 32, 11, 13, 0)
s = 18: (0, 57, 8, 12, 9, 7, 10, 10, 17, 8, 27, 0)
s = 19: (0, 36, 18, 8, 10, 6, 8, 14, 32, 7, 14, 0)
s = 20: (0, 46, 16, 13, 11, 6, 9, 11, 23, 6, 19, 0)
s = 21: (0, 56, 11, 11, 10, 11, 8, 13, 25, 6, 20, 0)
s = 22: (0, 77, 10, 9, 6, 8, 12, 10, 23, 8, 14, 0)
s = 23: (0, 63, 10, 11, 10, 5, 11, 16, 21, 7, 12, 0)
s = 24: (0, 58, 9, 13, 12, 11, 10, 10, 25, 5, 15, 0)
s = 25: (0, 92, 13, 10, 8, 9, 9, 7, 16, 10, 27, 0)
s = 26: (0, 33, 10, 19, 8, 10, 9, 9, 20, 5, 33, 0)
s = 27: (0, 53, 12, 8, 10, 11, 6, 8, 24, 11, 23, 0)
s = 28: (0, 74, 10, 7, 6, 7, 10, 7, 38, 10, 22, 0)
s = 29: (0, 38, 6, 13, 8, 5, 14, 10, 26, 7, 19, 0)
s = 30: (0, 65, 6, 10, 10, 8, 7, 11, 16, 5, 20, 0)
s = 31: (0, 41, 14, 11, 12, 11, 6, 12, 31, 9, 16, 0)
s = 32: (0, 51, 11, 9, 8, 8, 7, 15, 21, 6, 20, 0)
s = 33: (0, 43, 9, 14, 10, 9, 8, 8, 26, 6, 14, 0)
s = 34: (0, 69, 7, 13, 14, 8, 10, 13, 26, 5, 26, 0)
s = 35: (0, 41, 11, 9, 10, 10, 9, 12, 38, 5, 17, 0)
s = 36: (0, 38, 15, 14, 8, 8, 9, 11, 17, 9, 34, 0)
s = 37: (0, 60, 11, 8, 9, 9, 9, 11, 20, 6, 13, 0)
s = 38: (0, 48, 11, 16, 7, 14, 8, 15, 21, 5, 24, 0)
s = 39: (0, 52, 11, 15, 9, 9, 7, 8, 24, 7, 14, 0)
s = 40: (0, 62, 6, 7, 11, 8, 8, 9, 15, 5, 15, 0)
s = 41: (0, 60, 8, 9, 12, 10, 14, 13, 27, 5, 19, 0)
s = 42: (0, 64, 10, 10, 10, 9, 8, 15, 18, 6, 13, 0)
s = 43: (0, 53, 9, 11, 14, 10, 9, 9, 30, 6, 12, 0)
s = 44: (0, 57, 6, 9, 8, 8, 8, 13, 43, 6, 30, 0)
s = 45: (0, 61, 10, 9, 13, 11, 7, 16, 32, 6, 14, 0)
s = 46: (0, 43, 8, 9, 8, 6, 9, 8, 27, 6, 24, 0)
s = 47: (0, 54, 9, 8, 13, 8, 9, 10, 15, 7, 28, 0)
s = 48: (0, 30, 15, 11, 8, 7, 10, 10, 20, 10, 22, 0)
s = 49: (0, 67, 8, 13, 7, 13, 15, 9, 15, 6, 18, 0)
s = 50: (0, 33, 8, 14, 6, 10, 13, 9, 32, 4, 19, 0)
s = 51: (0, 40, 15, 11, 9, 7, 12, 8, 19, 5, 21, 0)
s = 52: (0, 87, 10, 13, 6, 15, 9, 8, 15, 8, 22, 0)
s = 53: (0, 47, 7, 12, 8, 8, 13, 7, 30, 5, 17, 0)
s = 54: (0, 40, 14, 15, 9, 9, 12, 11, 28, 7, 23, 0)
s = 55: (0, 77, 9, 9, 9, 7, 8, 14, 40, 8, 20, 0)
s = 56: (0, 59, 7, 16, 9, 7, 10, 9, 17, 8, 29, 0)
s = 57: (0, 56, 7, 9, 10, 7, 7, 8, 26, 7, 18, 0)
s = 58: (0, 42, 10, 8, 8, 7, 7, 10, 35, 7, 23, 0)
s = 59: (0, 64, 19, 6, 16, 9, 6, 10, 17, 7, 18, 0)
s = 60: (0, 45, 14, 8, 12, 5, 8, 9, 13, 6, 22, 0)
s = 61: (0, 49, 12, 9, 7, 9, 18, 10, 22, 5, 30, 0)
s = 62: (0, 42, 6, 9, 10, 8, 6, 13, 21, 4, 29, 0)
s = 63: (0, 55, 12, 8, 11, 8, 8, 10, 27, 11, 18, 0)
s = 64: (0, 62, 14, 14, 10, 9, 8, 8, 26, 8, 20, 0)
s = 65: (0, 40, 16, 7, 6, 13, 8, 6, 40, 5, 15, 0)
s = 66: (0, 61, 12, 10, 8, 6, 10, 13, 42, 6, 18, 0)
s = 67: (0, 50, 10, 7, 7, 8, 12, 16, 26, 6, 28, 0)
s = 68: (0, 56, 11, 12, 6, 12, 11, 7, 14, 9, 20, 0)
s = 69: (0, 39, 9, 10, 12, 13, 13, 9, 29, 8, 15, 0)
s = 70: (0, 47, 14, 9, 9, 6, 7, 7, 17, 5, 23, 0)
s = 71: (0, 42, 6, 14, 11, 7, 8, 14, 19, 7, 18, 0)
s = 72: (0, 74, 17, 10, 6, 9, 9, 11, 22, 5, 26, 0)
s = 73: (0, 50, 16, 9, 9, 8, 14, 8, 37, 4, 15, 0)
s = 74: (0, 52, 7, 15, 6, 6, 11, 12, 47, 7, 14, 0)
s = 75: (0, 35, 11, 11, 9, 7, 10, 9, 25, 7, 27, 0)
s = 76: (0, 31, 11, 8, 9, 15, 6, 10, 29, 4, 17, 0)
s = 77: (0, 57, 15, 12, 14, 5, 6, 12, 29, 7, 18, 0)
s = 78: (0, 48, 13, 11, 6, 6, 10, 18, 22, 4, 14, 0)
s = 79: (0, 82, 9, 19, 10, 6, 9, 19, 21, 7, 12, 0)
s = 80: (0, 44, 14, 11, 15, 15, 6, 9, 35, 6, 13, 0)
s = 81: (0, 51, 8, 9, 8, 5, 14, 8, 29, 8, 21, 0)
s = 82: (0, 54, 8, 14, 15, 7, 7, 9, 30, 5, 17, 0)
s = 83: (0, 61, 6, 10, 10, 9, 12, 17, 23, 7, 22, 0)
s = 84: (0, 45, 16, 6, 10, 5, 7, 13, 20, 4, 14, 0)
s = 85: (0, 45, 6, 7, 5, 9, 12, 12, 21, 5, 13, 0)
s = 86: (0, 58, 13, 9, 9, 12, 10, 6, 16, 8, 23, 0)
s = 87: (0, 70, 14, 10, 7, 6, 10, 6, 22, 5, 16, 0)
s = 88: (0, 57, 15, 7, 8, 7, 8, 8, 18, 8, 14, 0)
s = 89: (0, 42, 8, 9, 11, 11, 8, 12, 19, 6, 27, 0)
s = 90: (0, 38, 8, 15, 8, 8, 8, 14, 16, 8, 23, 0)
s = 91: (0, 55, 10, 11, 13, 5, 7, 11, 14, 8, 22, 0)
s = 92: (0, 55, 9, 10, 17, 9, 10, 16, 21, 4, 15, 0)
s = 93: (0, 43, 11, 7, 8, 14, 8, 14, 23, 10, 24, 0)
s = 94: (0, 52, 8, 8, 8, 7, 9, 13, 30, 8, 18, 0)
s = 95: (0, 59, 12, 9, 10, 8, 8, 12, 19, 6, 20, 0)
s = 96: (0, 73, 8, 8, 7, 11, 8, 13, 29, 4, 29, 0)
s = 97: (0, 67, 10, 10, 12, 10, 10, 11, 22, 5, 27, 0)
s = 98: (0, 69, 8, 7, 13, 10, 15, 9, 29, 7, 21, 0)
s = 99: (0, 56, 12, 18, 8, 12, 10, 7, 35, 6, 17, 0)
s = 100: (0, 63, 13, 6, 10, 8, 9, 11, 28, 6, 15, 0)
s = 101: (0, 73, 10, 13, 13, 9, 7, 9, 34, 9, 16, 0)
s = 102: (0, 46, 7, 8, 7, 7, 7, 12, 23, 7, 14, 0)
s = 103: (0, 79, 14, 11, 9, 9, 9, 9, 26, 8, 22, 0)
s = 104: (0, 43, 10, 10, 12, 8, 9, 10, 24, 4, 29, 0)
s = 105: (0, 68, 17, 13, 10, 6, 8, 8, 21, 5, 14, 0)
s = 106: (0, 35, 9, 13, 11, 15, 6, 7, 33, 6, 25, 0)
s = 107: (0, 35, 9, 14, 7, 12, 8, 11, 29, 4, 22, 0)
s = 108: (0, 69, 9, 10, 10, 12, 13, 7, 18, 8, 28, 0)
s = 109: (0, 38, 10, 14, 10, 14, 9, 12, 22, 4, 17, 0)
s = 110: (0, 52, 16, 10, 9, 6, 7, 12, 27, 5, 32, 0)
s = 111: (0, 33, 7, 7, 7, 7, 11, 11, 23, 7, 19, 0)
s = 112: (0, 59, 15, 8, 8, 7, 7, 11, 16, 8, 19, 0)
s = 113: (0, 47, 8, 11, 10, 12, 8, 11, 33, 6, 26, 0)
s = 114: (0, 48, 8, 8, 6, 9, 6, 7, 22, 5, 20, 0)
s = 115: (0, 34, 11, 10, 6, 11, 7, 8, 26, 5, 17, 0)
s = 116: (0, 80, 18, 7, 9, 8, 7, 11, 32, 7, 18, 0)
s = 117: (0, 97, 15, 10, 8, 12, 14, 16, 20, 6, 32, 0)
s = 118: (0, 68, 12, 11, 6, 7, 7, 15, 26, 7, 20, 0)
s = 119: (0, 34, 9, 13, 10, 7, 6, 12, 25, 4, 23, 0)
s = 120: (0, 43, 8, 12, 10, 9, 13, 13, 25, 7, 23, 0)
s = 121: (0, 59, 9, 10, 9, 6, 6, 9, 18, 6, 20, 0)
s = 122: (0, 41, 8, 8, 7, 11, 8, 12, 30, 8, 28, 0)
s = 123: (0, 73, 8, 14, 8, 13, 14, 6, 27, 8, 25, 0)
s = 124: (0, 73, 10, 8, 13, 8, 12, 15, 30, 7, 20, 0)
s = 125: (0, 68, 15, 10, 8, 7, 11, 8, 29, 6, 19, 0)
s = 126: (0, 53, 12, 14, 6, 6, 7, 10, 31, 8, 17, 0)
s = 127: (0, 37, 14, 15, 9, 7, 7, 14, 25, 9, 26, 0)
s = 128: (0, 50, 10, 6, 9, 13, 14, 11, 17, 7, 13, 0)
s = 129: (0, 57, 14, 14, 12, 11, 6, 11, 20, 8, 14, 0)
s = 130: (0, 48, 7, 8, 13, 14, 6, 13, 24, 7, 29, 0)
s = 131: (0, 34, 11, 12, 10, 8, 12, 15, 25, 5, 15, 0)
s = 132: (0, 44, 6, 12, 8, 7, 7, 10, 26, 7, 22, 0)
s = 133: (0, 84, 12, 13, 12, 9, 6, 8, 27, 6, 19, 0)
s = 134: (0, 67, 9, 10, 11, 6, 9, 7, 25, 9, 22, 0)
s = 135: (0, 58, 12, 10, 13, 7, 12, 13, 24, 6, 20, 0)
s = 136: (0, 60, 9, 14, 9, 7, 7, 10, 32, 5, 21, 0)
s = 137: (0, 61, 8, 7, 9, 6, 10, 11, 27, 7, 24, 0)
s = 138: (0, 40, 9, 12, 10, 6, 10, 15, 30, 9, 13, 0)
s = 139: (0, 72, 11, 9, 9, 10, 15, 12, 24, 5, 17, 0)
s = 140: (0, 56, 12, 17, 11, 7, 9, 8, 22, 8, 13, 0)
s = 141: (0, 49, 12, 9, 8, 9, 17, 11, 14, 7, 26, 0)
s = 142: (0, 53, 10, 8, 5, 7, 5, 8, 31, 5, 16, 0)
s = 143: (0, 52, 11, 8, 10, 8, 10, 7, 23, 8, 20, 0)
s = 144: (0, 50, 11, 11, 5, 6, 6, 11, 18, 5, 30, 0)
s = 145: (0, 72, 14, 9, 11, 8, 17, 9, 33, 6, 18, 0)
s = 146: (0, 58, 7, 16, 9, 8, 9, 8, 33, 6, 20, 0)
s = 147: (0, 45, 15, 8, 8, 7, 12, 11, 21, 6, 31, 0)
s = 148: (0, 44, 7, 7, 11, 10, 11, 9, 35, 4, 28, 0)
s = 149: (0, 71, 13, 11, 8, 10, 7, 7, 22, 6, 21, 0)
s = 150: (0, 64, 8, 14, 6, 6, 11, 9, 37, 5, 23, 0)
s = 151: (0, 53, 11, 13, 8, 5, 14, 6, 24, 6, 16, 0)
s = 152: (0, 90, 11, 14, 9, 8, 9, 12, 33, 8, 19, 0)
s = 153: (0, 43, 10, 6, 14, 7, 7, 15, 15, 6, 29, 0)
s = 154: (0, 51, 14, 7, 6, 7, 12, 9, 44, 4, 21, 0)
s = 155: (0, 42, 10, 14, 8, 8, 8, 10, 34, 7, 12, 0)
s = 156: (0, 41, 8, 10, 9, 8, 15, 13, 17, 6, 13, 0)
s = 157: (0, 71, 10, 11, 16, 8, 13, 8, 19, 9, 25, 0)
s = 158: (0, 59, 14, 10, 17, 10, 10, 8, 19, 5, 28, 0)
s = 159: (0, 78, 10, 13, 15, 6, 12, 13, 36, 6, 32, 0)
s = 160: (0, 59, 11, 9, 5, 14, 6, 9, 27, 10, 14, 0)
s = 161: (0, 70, 10, 13, 8, 6, 7, 10, 17, 5, 20, 0)
s = 162: (0, 57, 9, 10, 8, 7, 11, 7, 21, 9, 21, 0)
s = 163: (0, 57, 9, 12, 7, 6, 6, 11, 28, 10, 16, 0)
s = 164: (0, 33, 7, 6, 11, 10, 10, 7, 29, 9, 27, 0)
s = 165: (0, 35, 9, 8, 8, 7, 15, 10, 15, 9, 19, 0)
s = 166: (0, 32, 11, 10, 11, 7, 9, 9, 22, 10, 20, 0)
s = 167: (0, 65, 14, 6, 9, 12, 11, 12, 20, 7, 23, 0)
s = 168: (0, 33, 8, 6, 8, 12, 9, 7, 40, 7, 27, 0)
s = 169: (0, 30, 9, 7, 13, 8, 11, 8, 32, 8, 28, 0)
s = 170: (0, 40, 8, 13, 9, 9, 8, 15, 19, 7, 22, 0)
s = 171: (0, 66, 10, 9, 15, 8, 8, 16, 18, 4, 32, 0)
s = 172: (0, 70, 10, 9, 9, 9, 14, 13, 39, 7, 27, 0)
s = 173: (0, 56, 10, 15, 12, 8, 10, 9, 25, 10, 33, 0)
s = 174: (0, 41, 12, 9, 9, 7, 7, 12, 23, 5, 17, 0)
s = 175: (0, 70, 13, 13, 10, 12, 6, 9, 39, 5, 21, 0)
s = 176: (0, 44, 7, 11, 7, 8, 8, 8, 28, 7, 15, 0)
s = 177: (0, 52, 14, 10, 10, 6, 14, 7, 22, 5, 17, 0)
s = 178: (0, 42, 10, 10, 8, 6, 7, 12, 35, 8, 28, 0)
s = 179: (0, 65, 9, 12, 12, 10, 7, 7, 35, 7, 26, 0)
s = 180: (0, 38, 11, 7, 10, 12, 13, 8, 26, 4, 23, 0)
s = 181: (0, 48, 13, 6, 13, 13, 10, 7, 24, 6, 14, 0)
s = 182: (0, 45, 10, 8, 10, 9, 13, 10, 26, 5, 19, 0)
s = 183: (0, 88, 15, 13, 10, 12, 5, 14, 28, 6, 19, 0)
s = 184: (0, 77, 12, 11, 7, 12, 6, 12, 18, 9, 17, 0)
s = 185: (0, 59, 9, 9, 6, 8, 7, 15, 28, 6, 18, 0)
s = 186: (0, 39, 9, 15, 8, 9, 13, 14, 28, 6, 16, 0)
s = 187: (0, 67, 9, 12, 7, 10, 6, 9, 28, 7, 15, 0)
s = 188: (0, 59, 14, 9, 12, 7, 7, 12, 34, 9, 15, 0)
s = 189: (0, 33, 10, 7, 11, 8, 13, 7, 15, 4, 23, 0)
s = 190: (0, 48, 10, 9, 7, 6, 11, 9, 31, 6, 19, 0)
s = 191: (0, 74, 11, 18, 11, 15, 15, 12, 21, 4, 12, 0)
s = 192: (0, 93, 9, 10, 7, 7, 9, 9, 25, 7, 21, 0)
s = 193: (0, 52, 8, 9, 6, 9, 13, 8, 21, 4, 25, 0)
s = 194: (0, 63, 10, 8, 8, 6, 11, 8, 24, 9, 23, 0)
s = 195: (0, 35, 11, 8, 8, 5, 11, 10, 20, 10, 14, 0)
s = 196: (0, 53, 8, 16, 10, 12, 9, 8, 17, 8, 16, 0)
s = 197: (0, 63, 17, 7, 8, 9, 7, 8, 23, 5, 20, 0)
s = 198: (0, 50, 16, 11, 7, 8, 11, 8, 17, 8, 23, 0)
s = 199: (0, 72, 8, 17, 11, 8, 6, 18, 32, 8, 29, 0)
s = 200: (0, 65, 10, 19, 13, 5, 12, 10, 29, 7, 17, 0)
************************************************************************
ES/LS-VALUES:
jobnr.   ES(i)    LS(i)
------------------------------------------------------------------------
  0        0        0
  1        0       52
  2        0       65
  3        0       67
  4       16       69
  5        1       69
  6        1       68
  7        1       67
  8        4       71
  9       22       75
 10        3       70
 11       23       77
************************************************************************
BIG-M-VALUES:
M1 = 95, M2 = 388
************************************************************************
